language ESSENCE' 1.0
$ Generated from file data/MMLIB50/J5034_2.mm
$ Best heuristic solution: makespan = 24, combo = serial/LFT/LST/LTRU
$ Pruned 20 mode(s) by time-window test (horizon = 24)
$ activity,mode,start (1-based indexing)
$ 1,1,0
$ 2,2,0
$ 3,1,0
$ 4,2,0
$ 5,1,0
$ 6,1,0
$ 7,2,0
$ 8,2,0
$ 9,1,0
$ 10,1,6
$ 11,3,0
$ 12,1,3
$ 13,3,0
$ 14,1,5
$ 15,1,4
$ 16,1,0
$ 17,1,0
$ 18,3,0
$ 19,1,1
$ 20,1,5
$ 21,2,3
$ 22,1,10
$ 23,2,1
$ 24,1,6
$ 25,3,6
$ 26,1,2
$ 27,3,0
$ 28,1,0
$ 29,1,7
$ 30,1,7
$ 31,3,7
$ 32,2,4
$ 33,3,7
$ 34,1,10
$ 35,1,15
$ 36,1,15
$ 37,1,15
$ 38,2,7
$ 39,1,7
$ 40,1,21
$ 41,3,17
$ 42,2,15
$ 43,1,14
$ 44,3,10
$ 45,3,15
$ 46,1,10
$ 47,2,10
$ 48,1,10
$ 49,1,11
$ 50,3,10
$ 51,3,10
$ 52,1,24
letting jobs = 52
letting lowerBound = 24
letting horizon = 23
letting resourcesRenew = 2
letting resourcesNonrenew = 2
letting successors = [[2, 3, 4, 5, 6, 7, 8, 9, 11, 13, 16, 17, 18, 19, 26, 27, 28], [50, 49, 48, 35, 30, 24, 10], [49, 48, 47, 45, 23, 20, 12], [51, 50, 48, 47, 39, 36, 30, 14], [51, 49, 48, 47, 39, 38, 37, 35, 32, 21], [50, 48, 47, 46, 34, 30, 24, 22, 20], [50, 47, 38, 35, 34, 33, 31, 25, 24], [48, 34, 32, 30, 14], [49, 38, 36, 22, 15], [47, 46, 44, 43, 38, 34, 31, 29], [50, 49, 48, 44, 43, 34, 22], [50, 46, 37, 35, 34, 32, 29], [51, 49, 43, 42, 39, 38, 35, 31], [49, 46, 44, 43, 37, 35, 29], [48, 47, 46, 45, 43, 41, 30], [49, 48, 47, 44, 43, 35, 31], [45, 36, 35, 32, 30], [51, 50, 47, 44, 42, 36, 35], [50, 45, 43, 36, 35], [44, 43, 42, 41, 40], [46, 44, 42, 41, 40], [42, 41, 37, 35], [43, 30], [44, 40, 36], [42, 40, 36], [45, 40, 36], [46, 41, 35], [44, 41, 35], [42, 41, 40], [42, 37], [45, 41], [43, 40], [43, 40], [36], [40], [41], [40], [45], [41], [52], [52], [52], [52], [52], [52], [52], [52], [52], [52], [52], [52], []]
letting durations = [[0], [5, 6], [1, 2, 6], [1, 5], [3, 9, 10], [5, 7], [5, 6, 9], [3, 4], [4], [1, 5, 6], [7, 9, 10], [1, 5, 10], [1, 3, 7], [2, 3, 10], [3], [3, 5, 7], [4, 5], [3, 6, 10], [1, 6, 7], [2, 3, 7], [2, 4, 8], [5], [1, 6], [2, 7, 8], [4, 8, 9], [1, 7, 9], [6, 7, 10], [1, 2, 3], [2, 6, 10], [8], [4, 7, 8], [3, 4, 8], [4, 6, 7], [2, 3, 5], [2, 4], [2, 5, 7], [6], [7, 8, 10], [4, 7, 8], [3], [1, 4, 6], [6, 7], [4, 6, 9], [1, 7, 10], [2, 5, 8], [1, 2, 8], [1, 5, 8], [3, 4, 7], [1, 2, 3], [1, 3, 4], [1, 9, 10], [0]]
letting resourceUsage = [[[0, 0, 0, 0]], [[8, 3, 3, 5], [6, 3, 3, 4]], [[8, 5, 6, 3], [7, 4, 6, 3], [6, 4, 2, 2]], [[10, 6, 1, 5], [8, 3, 1, 4]], [[6, 8, 7, 5], [6, 5, 4, 4], [6, 5, 4, 3]], [[5, 8, 5, 4], [5, 7, 4, 3]], [[5, 8, 9, 8], [4, 7, 8, 8], [4, 5, 8, 7]], [[7, 8, 8, 2], [5, 6, 8, 1]], [[8, 9, 5, 4]], [[9, 10, 7, 1], [5, 9, 7, 2], [5, 9, 7, 1]], [[4, 9, 4, 5], [3, 6, 3, 5], [3, 5, 2, 3]], [[9, 9, 8, 9], [8, 8, 7, 6], [8, 5, 7, 5]], [[4, 8, 3, 6], [2, 7, 3, 6], [1, 7, 1, 6]], [[3, 10, 4, 2], [3, 10, 3, 2], [3, 10, 2, 2]], [[8, 8, 4, 6]], [[7, 6, 5, 2], [7, 6, 4, 1], [7, 4, 2, 1]], [[4, 7, 5, 3], [3, 6, 2, 3]], [[5, 7, 9, 3], [4, 4, 7, 2], [2, 2, 3, 2]], [[10, 4, 6, 4], [7, 3, 6, 2], [4, 3, 3, 1]], [[9, 9, 10, 3], [6, 8, 8, 3], [6, 8, 7, 2]], [[8, 6, 3, 7], [6, 6, 1, 7], [5, 6, 1, 6]], [[4, 6, 7, 8]], [[7, 5, 8, 9], [6, 5, 6, 8]], [[5, 6, 2, 3], [5, 5, 2, 1], [5, 4, 2, 1]], [[1, 9, 7, 4], [1, 9, 4, 2], [1, 8, 1, 2]], [[6, 7, 8, 3], [6, 7, 8, 2], [6, 7, 8, 1]], [[7, 8, 8, 7], [4, 7, 6, 6], [2, 5, 5, 6]], [[9, 5, 2, 6], [8, 4, 2, 5], [6, 4, 2, 4]], [[3, 4, 7, 5], [3, 3, 5, 5], [3, 2, 4, 5]], [[9, 6, 1, 5]], [[9, 4, 8, 10], [6, 4, 3, 5], [5, 3, 1, 2]], [[9, 8, 6, 4], [7, 5, 5, 4], [5, 4, 4, 3]], [[6, 9, 5, 6], [6, 9, 2, 3], [5, 9, 1, 3]], [[5, 9, 2, 6], [4, 7, 2, 6], [4, 7, 1, 6]], [[4, 10, 5, 8], [3, 10, 5, 4]], [[6, 8, 7, 5], [6, 5, 4, 5], [6, 4, 3, 5]], [[5, 6, 6, 4]], [[4, 3, 9, 9], [3, 2, 9, 6], [3, 2, 9, 3]], [[6, 8, 2, 9], [6, 7, 1, 8], [2, 7, 1, 8]], [[7, 5, 1, 5]], [[9, 7, 9, 9], [8, 6, 4, 4], [7, 1, 2, 2]], [[9, 9, 5, 10], [6, 8, 5, 5]], [[6, 10, 8, 10], [6, 5, 7, 9], [6, 4, 4, 9]], [[6, 6, 10, 7], [5, 5, 7, 5], [4, 3, 6, 2]], [[9, 5, 5, 9], [9, 5, 5, 5], [9, 3, 4, 3]], [[7, 8, 10, 5], [6, 6, 9, 5], [3, 2, 7, 4]], [[3, 8, 8, 6], [2, 8, 3, 4], [1, 5, 3, 4]], [[8, 9, 8, 9], [8, 9, 8, 8], [7, 8, 6, 8]], [[9, 9, 5, 10], [8, 9, 5, 9], [7, 7, 5, 9]], [[6, 4, 8, 7], [5, 2, 4, 6], [4, 1, 3, 4]], [[6, 6, 4, 5], [5, 5, 3, 4], [5, 2, 1, 2]], [[0, 0, 0, 0]]]
letting resourceLimits = [87, 89, 233, 238]
$ Near-critical path lengths (shortest-mode sums): [24, 22, 22, 21, 21]
letting nearCriticalPaths = [[1, 9, 15, 30, 37, 40, 52], [1, 2, 30, 37, 40, 52], [1, 6, 30, 37, 40, 52], [1, 11, 22, 37, 40, 52], [1, 17, 30, 37, 40, 52]]
